c User generated cnf file
p cnf 14 45
11 2 -3 0 
11 13 -4 0 
-3 6 12 0 
3 -10 12 0 
7 -9 4 0 
-8 8 8 0 
14 5 -9 0 
6 -5 12 0 
3 -8 4 0 
10 7 -13 0 
6 12 -10 0 
-3 1 5 0 
3 -12 10 0 
1 10 -3 0 
9 -8 14 0 
4 -3 6 0 
9 -4 13 0 
-8 7 11 0 
4 1 -12 0 
6 -13 2 0 
12 1 -1 0 
10 14 -8 0 
5 -12 14 0 
1 14 -8 0 
5 9 -10 0 
2 13 -10 0 
-3 1 14 0 
-6 11 13 0 
-3 6 13 0 
5 11 -3 0 
12 -5 5 0 
4 11 -2 0 
5 -4 12 0 
11 -3 8 0 
-4 10 1 0 
9 -4 13 0 
-11 5 1 0 
14 5 -3 0 
-8 5 4 0 
3 -10 1 0 
1 5 -1 0 
-14 5 10 0 
-1 6 13 0 
8 -4 3 0 
9 11 -8 0 
